nNurses = 125;
nHours = 29;
minHours = 5;
maxHours = 14;
maxConsec = 12;
maxPresence = 13;
demand = [15, 12, 17, 15, 10, 14, 13, 14, 10, 10, 5, 5, 6, 8, 5, 9, 6, 5, 9, 12, 17, 18, 14, 16, 20, 17, 14, 12, 9];
